(set-info :smt-lib-version 2.6)
(set-logic QF_S)
(set-info :source |
Generated by: Murphy Berzish, Mitja Kulczynski, Federico Mora, Florin Manea, Joel Day, Dirk Nowotka, Vijay Ganesh, Zhengyang Lu
Generated on: 2020-10-01
Description: Translated from a collection of real-world regex queries, AutomataArk, collected by Loris D’Antoni and Fang Wang: https://github.com/lorisdanto/automatark
Application: Evaluate solvers on real-world regex queries
Target solver: Z3str3RE, CVC4, OSTRICH, Z3seq, Z3str3, Z3-Trau
Publications: Berzish, M., Kulczynski, M., Mora, F., Manea, F., Day, J. D., Nowotka, D., & Ganesh, V. (2021, July). An SMT solver for regular expressions and linear arithmetic over string length. In CAV 2021.
|)
(set-info :license "https://creativecommons.org/licenses/by/4.0/")
(set-info :category "industrial")
(set-info :status sat)

(declare-const X String)
(assert (not (str.in_re X (re.union (re.++ (re.union (str.to_re "\u{22}") (str.to_re "'")) (re.* (re.union (re.range "a" "z") (re.range "0" "9") (str.to_re "/") (str.to_re ".") (str.to_re "?") (str.to_re "=") (str.to_re "&"))) (re.* (re.union (re.range "a" "z") (re.range "0" "9") (str.to_re "/") (str.to_re ".") (str.to_re "?") (str.to_re "=") (str.to_re "&"))) (re.union (str.to_re "\u{22}") (str.to_re "'")) (str.to_re ".") (re.union (str.to_re "htm") (str.to_re "asp") (str.to_re "php") (str.to_re "jsp"))) (re.++ (str.to_re "\u{a}href") (re.* (str.to_re "=")) (re.* (re.union (re.range "a" "z") (re.range "0" "9") (str.to_re "/") (str.to_re ".") (str.to_re "?") (str.to_re "=") (str.to_re "&") (str.to_re "\u{22}") (str.to_re "'"))))))))
(assert (not (str.in_re X (re.++ (str.to_re "\u{a}on") (re.union (str.to_re "blur") (re.++ (str.to_re "c") (re.union (str.to_re "hange") (str.to_re "lick"))) (str.to_re "dblclick") (str.to_re "focus") (str.to_re "keypress") (re.++ (re.union (str.to_re "key") (str.to_re "mouse")) (re.union (str.to_re "down") (str.to_re "up"))) (re.++ (re.opt (str.to_re "un")) (str.to_re "load")) (re.++ (str.to_re "mouse") (re.union (str.to_re "move") (re.++ (str.to_re "o") (re.union (str.to_re "ut") (str.to_re "ver"))))) (str.to_re "reset") (re.++ (str.to_re "s") (re.union (str.to_re "elect") (str.to_re "ubmit"))))))))
(assert (not (str.in_re X (re.++ (str.to_re "//blog/") ((_ re.loop 3 3) (re.union (re.range "a" "z") (re.range "A" "Z") (re.range "0" "9"))) (str.to_re ".") (re.union (re.++ (str.to_re "g") (re.union (str.to_re "3") (str.to_re "e")) (str.to_re "d")) (str.to_re "mm") (str.to_re "vru") (str.to_re "be") (str.to_re "nut")) (str.to_re "/U\u{a}")))))
(assert (str.in_re X (str.to_re "Serverwjpropqmlpohj/loHost:KEY=\u{a}")))
(assert (not (str.in_re X (re.++ (str.to_re "Subject:") (re.+ (re.range "0" "9")) (str.to_re "media.dxcdirect.com.smx?PASSW=SAHHost:\u{a}")))))
(check-sat)

(exit)
